n=588;
k_min=13;
k_max=13;
M=[| 72, 70, 74, 83, 81, 72, 80, 81, 80, 70, 75, 81, 74
 | 72, 70, 74, 83, 81, 72, 79, 81, 80, 70, 75, 81, 74
 | 72, 71, 74, 82, 81, 73, 79, 81, 80, 71, 75, 81, 74
 | 72, 71, 73, 82, 82, 73, 79, 81, 80, 71, 75, 81, 74
 | 72, 71, 73, 83, 82, 73, 79, 81, 80, 71, 75, 81, 74
 | 72, 71, 73, 83, 82, 73, 79, 81, 79, 71, 75, 81, 74
 | 73, 71, 73, 82, 82, 73, 79, 81, 79, 71, 75, 81, 74
 | 73, 71, 73, 82, 83, 73, 78, 80, 79, 71, 75, 81, 74
 | 73, 71, 73, 82, 82, 73, 78, 80, 79, 71, 75, 81, 74
 | 73, 71, 73, 81, 83, 73, 78, 80, 79, 71, 75, 81, 74
 | 73, 71, 73, 81, 83, 73, 78, 80, 79, 71, 75, 81, 74
 | 73, 71, 73, 80, 83, 74, 78, 80, 79, 71, 75, 81, 75
 | 73, 71, 73, 80, 82, 74, 78, 80, 79, 72, 75, 81, 75
 | 74, 71, 73, 79, 83, 74, 78, 80, 79, 72, 75, 81, 75
 | 74, 71, 73, 79, 82, 74, 78, 80, 80, 72, 75, 81, 75
 | 74, 71, 73, 79, 83, 74, 78, 80, 80, 71, 75, 81, 75
 | 74, 71, 73, 78, 82, 74, 79, 81, 80, 71, 75, 80, 75
 | 73, 71, 73, 78, 82, 74, 79, 81, 80, 71, 75, 80, 75
 | 72, 71, 74, 82, 80, 72, 80, 81, 80, 70, 75, 81, 74
 | 72, 71, 74, 83, 81, 72, 80, 81, 80, 71, 75, 81, 74
 | 72, 71, 74, 82, 81, 73, 79, 81, 80, 71, 75, 81, 74
 | 72, 71, 74, 82, 81, 73, 79, 81, 80, 71, 75, 81, 74
 | 72, 71, 74, 82, 81, 73, 79, 81, 80, 71, 75, 81, 74
 | 72, 71, 73, 82, 82, 73, 79, 81, 80, 71, 75, 81, 74
 | 72, 71, 73, 83, 82, 73, 79, 81, 80, 71, 75, 81, 74
 | 72, 71, 73, 83, 82, 73, 79, 81, 79, 71, 75, 81, 74
 | 73, 71, 73, 82, 82, 73, 78, 80, 79, 71, 75, 81, 74
 | 73, 71, 73, 82, 83, 73, 78, 80, 79, 71, 75, 81, 74
 | 73, 71, 73, 82, 83, 73, 78, 80, 79, 71, 75, 81, 74
 | 73, 71, 73, 81, 83, 73, 78, 80, 79, 71, 75, 81, 74
 | 73, 71, 73, 81, 83, 73, 78, 80, 79, 71, 75, 81, 74
 | 73, 71, 73, 81, 83, 73, 78, 80, 79, 71, 75, 81, 74
 | 73, 71, 73, 81, 82, 74, 78, 80, 79, 71, 75, 81, 74
 | 73, 71, 73, 80, 83, 74, 78, 80, 79, 71, 75, 81, 75
 | 74, 71, 73, 80, 83, 74, 78, 80, 79, 72, 75, 81, 75
 | 74, 71, 73, 80, 83, 74, 78, 80, 79, 72, 75, 81, 75
 | 73, 71, 73, 80, 83, 74, 78, 80, 79, 71, 75, 81, 75
 | 74, 72, 73, 79, 82, 74, 78, 80, 79, 72, 75, 81, 75
 | 74, 72, 73, 79, 82, 74, 78, 80, 79, 72, 75, 80, 75
 | 74, 71, 73, 79, 82, 74, 78, 80, 79, 72, 75, 80, 75
 | 74, 71, 73, 78, 82, 74, 78, 80, 80, 72, 75, 80, 75
 | 74, 71, 73, 78, 82, 74, 78, 80, 80, 72, 75, 80, 75
 | 74, 71, 73, 78, 82, 74, 79, 81, 80, 71, 75, 80, 75
 | 72, 71, 74, 82, 80, 73, 80, 81, 80, 71, 75, 81, 74
 | 72, 71, 74, 82, 81, 73, 79, 81, 80, 71, 75, 81, 74
 | 72, 71, 74, 82, 81, 73, 80, 81, 80, 71, 75, 81, 74
 | 72, 71, 74, 82, 81, 73, 79, 81, 80, 71, 75, 81, 74
 | 73, 71, 74, 82, 81, 73, 79, 81, 80, 71, 75, 81, 74
 | 73, 71, 74, 82, 81, 73, 79, 81, 80, 71, 75, 81, 74
 | 72, 71, 74, 82, 81, 73, 79, 81, 80, 71, 75, 81, 74
 | 73, 71, 74, 82, 82, 73, 79, 80, 79, 71, 75, 81, 74
 | 73, 71, 74, 82, 82, 73, 79, 80, 79, 71, 75, 81, 74
 | 73, 71, 73, 82, 82, 73, 79, 80, 79, 71, 75, 81, 74
 | 73, 71, 73, 82, 82, 73, 78, 80, 79, 71, 75, 81, 74
 | 73, 71, 73, 82, 82, 73, 78, 80, 79, 71, 75, 81, 74
 | 73, 71, 73, 82, 82, 73, 78, 80, 79, 71, 75, 81, 74
 | 73, 71, 73, 82, 82, 73, 78, 80, 79, 71, 75, 81, 74
 | 73, 71, 73, 82, 83, 73, 78, 80, 79, 71, 75, 81, 74
 | 73, 71, 73, 81, 83, 73, 78, 80, 79, 71, 75, 81, 74
 | 73, 71, 73, 81, 83, 73, 78, 80, 79, 71, 75, 81, 74
 | 73, 71, 73, 81, 82, 74, 78, 80, 79, 72, 75, 81, 75
 | 74, 72, 73, 80, 82, 74, 78, 80, 79, 72, 75, 81, 75
 | 74, 72, 73, 80, 83, 74, 78, 80, 79, 72, 75, 81, 75
 | 73, 71, 73, 80, 82, 74, 78, 80, 79, 72, 75, 81, 75
 | 73, 71, 73, 81, 82, 74, 78, 80, 79, 72, 75, 81, 75
 | 73, 71, 73, 81, 82, 74, 78, 80, 79, 71, 75, 81, 74
 | 73, 71, 73, 80, 82, 74, 78, 80, 79, 72, 75, 81, 75
 | 73, 71, 73, 80, 83, 74, 78, 80, 79, 71, 75, 81, 75
 | 74, 72, 73, 80, 83, 74, 78, 80, 79, 72, 75, 81, 75
 | 74, 72, 73, 79, 83, 74, 78, 80, 79, 72, 75, 81, 75
 | 74, 72, 73, 79, 82, 74, 78, 80, 79, 72, 75, 80, 75
 | 74, 72, 73, 79, 82, 74, 78, 80, 79, 72, 75, 80, 75
 | 74, 72, 73, 79, 82, 74, 78, 80, 79, 72, 75, 80, 75
 | 74, 71, 73, 78, 82, 74, 78, 80, 79, 72, 75, 80, 75
 | 74, 71, 73, 78, 82, 74, 78, 80, 80, 72, 75, 80, 75
 | 74, 71, 74, 78, 82, 74, 79, 80, 80, 72, 75, 80, 75
 | 74, 71, 74, 78, 82, 74, 79, 81, 80, 71, 75, 80, 75
 | 73, 71, 73, 81, 82, 74, 78, 80, 79, 72, 75, 81, 74
 | 73, 71, 73, 81, 83, 73, 78, 80, 79, 71, 75, 81, 74
 | 73, 71, 73, 82, 82, 73, 78, 80, 79, 71, 75, 81, 74
 | 73, 71, 73, 82, 82, 73, 78, 80, 79, 71, 75, 81, 74
 | 73, 71, 73, 82, 82, 73, 78, 80, 79, 71, 75, 81, 74
 | 73, 71, 74, 82, 82, 73, 78, 80, 79, 71, 75, 81, 74
 | 73, 71, 74, 82, 82, 73, 78, 80, 79, 71, 75, 81, 74
 | 73, 71, 73, 80, 82, 74, 78, 80, 79, 71, 75, 81, 75
 | 74, 71, 73, 79, 83, 74, 78, 80, 79, 72, 75, 81, 75
 | 74, 71, 73, 79, 83, 74, 78, 80, 79, 72, 75, 80, 75
 | 73, 71, 74, 82, 82, 73, 79, 80, 79, 71, 75, 81, 74
 | 73, 71, 74, 82, 82, 73, 79, 80, 79, 71, 75, 81, 74
 | 73, 71, 74, 82, 82, 73, 79, 80, 79, 71, 75, 81, 74
 | 73, 71, 74, 82, 81, 73, 79, 80, 79, 71, 75, 81, 74
 | 73, 71, 74, 82, 81, 73, 79, 81, 80, 71, 75, 81, 74
 | 73, 71, 74, 82, 81, 73, 79, 81, 80, 71, 75, 81, 74
 | 73, 71, 74, 82, 81, 73, 79, 81, 80, 71, 75, 81, 74
 | 72, 71, 74, 82, 81, 73, 79, 81, 80, 71, 75, 81, 74
 | 72, 71, 74, 82, 80, 73, 80, 81, 80, 71, 75, 80, 74
 | 72, 71, 74, 82, 80, 73, 80, 81, 80, 71, 75, 80, 75
 | 72, 71, 74, 82, 80, 73, 80, 81, 80, 71, 75, 81, 74
 | 74, 71, 73, 80, 83, 74, 78, 80, 79, 72, 75, 81, 75
 | 73, 71, 73, 80, 83, 74, 78, 80, 79, 72, 75, 81, 75
 | 74, 71, 73, 79, 83, 74, 78, 80, 80, 71, 75, 81, 75
 | 73, 71, 73, 80, 83, 74, 78, 80, 79, 71, 75, 81, 75
 | 73, 71, 73, 81, 83, 73, 78, 80, 79, 71, 75, 81, 74
 | 73, 71, 73, 80, 83, 74, 78, 80, 79, 71, 75, 81, 75
 | 74, 71, 73, 79, 83, 74, 78, 80, 80, 71, 75, 81, 75
 | 73, 71, 73, 79, 83, 74, 78, 81, 80, 71, 75, 81, 75
 | 74, 71, 74, 78, 81, 74, 79, 80, 80, 72, 76, 80, 75
 | 74, 71, 74, 78, 82, 74, 79, 80, 80, 72, 75, 80, 75
 | 72, 70, 73, 81, 81, 73, 79, 82, 81, 70, 75, 82, 74
 | 72, 70, 73, 82, 81, 73, 79, 82, 80, 70, 75, 82, 74
 | 72, 70, 73, 81, 81, 73, 79, 82, 80, 70, 75, 82, 74
 | 72, 70, 73, 82, 82, 73, 79, 81, 80, 70, 75, 82, 74
 | 72, 70, 73, 81, 82, 73, 79, 81, 80, 71, 75, 82, 74
 | 73, 70, 73, 81, 82, 73, 79, 81, 80, 71, 75, 82, 74
 | 73, 70, 73, 81, 81, 73, 79, 81, 80, 71, 75, 82, 74
 | 73, 70, 73, 80, 81, 73, 79, 82, 81, 70, 75, 82, 74
 | 72, 70, 73, 81, 80, 73, 79, 82, 81, 70, 75, 82, 74
 | 72, 70, 73, 81, 80, 73, 79, 82, 81, 70, 75, 82, 74
 | 72, 70, 73, 81, 81, 73, 79, 82, 81, 70, 75, 83, 74
 | 72, 70, 73, 81, 81, 73, 79, 82, 81, 70, 75, 82, 74
 | 72, 70, 73, 81, 81, 73, 79, 82, 80, 70, 75, 83, 74
 | 72, 70, 73, 81, 81, 73, 79, 82, 80, 70, 75, 83, 74
 | 72, 70, 73, 81, 81, 73, 79, 82, 80, 70, 75, 83, 74
 | 72, 70, 73, 81, 81, 73, 79, 82, 81, 70, 75, 83, 74
 | 72, 70, 73, 81, 81, 73, 79, 82, 80, 70, 75, 82, 74
 | 72, 70, 73, 81, 82, 73, 79, 81, 80, 70, 75, 82, 74
 | 73, 70, 73, 81, 81, 73, 79, 81, 80, 70, 75, 82, 74
 | 73, 70, 73, 80, 81, 73, 79, 82, 81, 70, 75, 82, 74
 | 73, 70, 73, 80, 81, 73, 79, 81, 80, 71, 75, 82, 74
 | 72, 70, 73, 81, 81, 73, 79, 81, 80, 70, 75, 82, 74
 | 73, 70, 73, 81, 82, 73, 79, 81, 80, 71, 75, 82, 74
 | 73, 70, 73, 81, 82, 73, 79, 81, 80, 71, 75, 82, 74
 | 72, 70, 73, 81, 80, 72, 80, 83, 81, 70, 75, 81, 74
 | 72, 70, 73, 81, 80, 72, 80, 83, 81, 70, 75, 82, 74
 | 72, 70, 73, 81, 80, 73, 80, 82, 81, 70, 75, 82, 74
 | 72, 70, 73, 80, 80, 73, 80, 82, 82, 70, 75, 81, 75
 | 72, 70, 73, 79, 80, 73, 80, 83, 82, 70, 75, 80, 75
 | 72, 70, 74, 79, 79, 73, 81, 82, 83, 70, 76, 80, 75
 | 72, 70, 74, 80, 79, 73, 81, 82, 82, 70, 76, 80, 75
 | 72, 70, 74, 81, 79, 72, 81, 82, 82, 70, 76, 80, 75
 | 72, 70, 74, 81, 79, 72, 80, 82, 82, 70, 75, 81, 75
 | 72, 70, 73, 81, 80, 72, 80, 83, 82, 70, 75, 81, 74
 | 72, 70, 73, 80, 80, 73, 80, 82, 82, 70, 75, 81, 75
 | 72, 70, 73, 80, 80, 73, 80, 82, 82, 70, 75, 81, 75
 | 72, 70, 73, 80, 80, 73, 80, 82, 82, 70, 75, 81, 75
 | 72, 70, 74, 80, 79, 72, 80, 82, 82, 70, 75, 81, 75
 | 72, 70, 74, 80, 79, 73, 81, 82, 82, 70, 76, 80, 75
 | 72, 70, 74, 80, 79, 73, 80, 82, 82, 70, 75, 81, 75
 | 72, 70, 74, 80, 80, 73, 80, 82, 82, 70, 75, 81, 75
 | 72, 70, 74, 80, 79, 73, 81, 82, 82, 70, 76, 80, 75
 | 72, 70, 74, 79, 79, 73, 80, 82, 83, 70, 76, 80, 75
 | 72, 70, 73, 80, 80, 73, 80, 82, 82, 70, 75, 81, 75
 | 72, 70, 73, 80, 80, 73, 80, 82, 82, 70, 75, 81, 75
 | 72, 70, 74, 80, 79, 72, 81, 82, 82, 70, 76, 81, 75
 | 72, 70, 74, 81, 79, 72, 81, 82, 82, 70, 75, 81, 75
 | 72, 70, 73, 80, 80, 73, 80, 83, 82, 70, 75, 81, 75
 | 72, 70, 73, 80, 80, 73, 80, 82, 82, 70, 75, 81, 75
 | 72, 70, 73, 80, 80, 73, 80, 82, 81, 70, 75, 82, 75
 | 72, 70, 73, 81, 80, 73, 80, 83, 81, 70, 75, 82, 74
 | 73, 70, 74, 79, 78, 73, 81, 81, 82, 70, 76, 79, 75
 | 73, 70, 74, 79, 79, 73, 81, 82, 82, 70, 76, 79, 75
 | 73, 70, 74, 78, 79, 73, 81, 81, 82, 70, 76, 79, 76
 | 73, 70, 74, 79, 78, 73, 82, 81, 82, 70, 76, 79, 75
 | 73, 71, 75, 79, 78, 73, 82, 81, 81, 70, 76, 79, 75
 | 73, 71, 75, 79, 77, 73, 83, 80, 81, 71, 77, 78, 76
 | 73, 71, 76, 78, 77, 73, 82, 80, 80, 71, 77, 78, 76
 | 73, 71, 76, 78, 77, 74, 82, 80, 80, 71, 78, 78, 76
 | 73, 71, 76, 77, 77, 74, 82, 80, 80, 71, 78, 77, 77
 | 73, 71, 76, 77, 77, 74, 83, 80, 80, 71, 78, 77, 77
 | 73, 71, 75, 78, 78, 73, 82, 81, 81, 71, 77, 78, 76
 | 73, 71, 75, 78, 78, 73, 82, 81, 82, 71, 77, 79, 76
 | 73, 71, 75, 79, 78, 73, 82, 81, 82, 70, 77, 79, 76
 | 73, 71, 75, 79, 78, 73, 82, 81, 81, 71, 77, 79, 76
 | 73, 71, 75, 78, 77, 73, 82, 80, 81, 71, 77, 78, 76
 | 73, 71, 76, 78, 77, 73, 82, 80, 81, 71, 77, 78, 76
 | 73, 71, 75, 78, 77, 73, 82, 80, 81, 71, 77, 78, 76
 | 73, 71, 75, 78, 78, 73, 82, 81, 81, 71, 77, 78, 76
 | 73, 71, 75, 79, 78, 73, 82, 81, 81, 71, 77, 79, 76
 | 73, 70, 75, 79, 78, 73, 82, 81, 82, 70, 76, 79, 75
 | 73, 71, 75, 79, 77, 73, 83, 80, 81, 71, 77, 78, 76
 | 73, 71, 75, 78, 77, 73, 82, 80, 81, 71, 77, 78, 76
 | 73, 71, 75, 78, 77, 73, 82, 80, 81, 71, 77, 78, 76
 | 73, 70, 74, 79, 78, 73, 81, 81, 82, 70, 76, 79, 76
 | 73, 70, 74, 78, 78, 73, 81, 81, 82, 70, 77, 79, 76
 | 73, 71, 75, 78, 78, 73, 82, 81, 81, 71, 77, 78, 76
 | 73, 71, 75, 78, 77, 73, 82, 80, 81, 71, 77, 78, 76
 | 73, 70, 75, 79, 78, 73, 82, 81, 82, 70, 76, 79, 75
 | 73, 70, 74, 79, 78, 73, 82, 81, 82, 70, 76, 79, 75
 | 72, 70, 74, 80, 78, 73, 82, 81, 82, 70, 76, 79, 75
 | 73, 71, 75, 79, 78, 73, 82, 81, 81, 70, 76, 79, 75
 | 73, 71, 75, 79, 78, 73, 82, 81, 81, 71, 77, 79, 76
 | 73, 71, 75, 79, 78, 73, 82, 81, 81, 70, 77, 79, 76
 | 73, 71, 75, 79, 77, 73, 83, 80, 81, 71, 77, 79, 76
 | 73, 71, 75, 80, 78, 73, 82, 81, 81, 71, 76, 79, 75
 | 73, 70, 75, 79, 78, 73, 82, 81, 82, 70, 76, 79, 75
 | 73, 70, 74, 79, 78, 73, 81, 81, 82, 70, 76, 79, 76
 | 73, 71, 75, 79, 78, 73, 82, 81, 81, 71, 77, 79, 76
 | 72, 70, 74, 80, 78, 73, 82, 81, 82, 70, 76, 80, 75
 | 72, 70, 74, 79, 79, 73, 81, 82, 82, 70, 76, 80, 75
 | 73, 70, 75, 78, 78, 73, 82, 81, 82, 70, 77, 79, 76
 | 73, 71, 75, 77, 77, 74, 82, 80, 81, 71, 77, 78, 76
 | 73, 71, 75, 78, 78, 73, 82, 81, 81, 71, 77, 78, 76
 | 73, 71, 75, 77, 77, 73, 82, 80, 81, 71, 77, 78, 76
 | 73, 71, 76, 78, 77, 73, 82, 80, 81, 71, 78, 78, 76
 | 73, 71, 76, 78, 77, 73, 82, 80, 80, 71, 77, 78, 76
 | 73, 71, 76, 78, 77, 73, 82, 80, 81, 71, 77, 78, 76
 | 73, 71, 75, 79, 77, 73, 83, 80, 81, 71, 77, 78, 76
 | 73, 72, 76, 78, 77, 73, 82, 80, 80, 71, 78, 78, 76
 | 73, 71, 75, 78, 77, 73, 82, 80, 81, 71, 77, 78, 76
 | 73, 71, 76, 77, 77, 74, 82, 80, 80, 71, 78, 77, 77
 | 73, 71, 76, 77, 77, 74, 82, 80, 80, 71, 78, 77, 77
 | 73, 71, 76, 77, 77, 74, 83, 80, 80, 71, 78, 77, 77
 | 73, 71, 75, 77, 77, 74, 82, 80, 81, 71, 77, 78, 76
 | 73, 70, 74, 79, 78, 73, 82, 81, 82, 70, 76, 79, 75
 | 73, 70, 75, 78, 78, 73, 81, 81, 82, 70, 77, 79, 76
 | 73, 71, 75, 78, 78, 73, 82, 81, 82, 71, 77, 79, 76
 | 73, 71, 75, 78, 78, 73, 82, 81, 81, 71, 77, 78, 76
 | 73, 71, 75, 77, 78, 73, 82, 81, 81, 71, 77, 78, 76
 | 73, 71, 75, 77, 77, 74, 83, 80, 81, 71, 77, 78, 76
 | 73, 71, 76, 78, 77, 74, 82, 80, 80, 71, 78, 78, 76
 | 73, 71, 76, 78, 77, 73, 82, 80, 81, 71, 77, 78, 76
 | 73, 71, 76, 78, 77, 73, 82, 80, 80, 71, 77, 78, 76
 | 73, 71, 75, 79, 78, 73, 82, 81, 81, 70, 77, 79, 76
 | 73, 70, 75, 79, 78, 73, 81, 81, 82, 70, 77, 79, 76
 | 73, 71, 75, 78, 78, 73, 82, 81, 81, 71, 77, 78, 76
 | 73, 71, 75, 78, 78, 73, 82, 81, 81, 71, 77, 78, 76
 | 73, 71, 75, 78, 77, 73, 82, 80, 81, 71, 77, 78, 76
 | 73, 71, 75, 78, 77, 73, 82, 80, 81, 71, 77, 78, 76
 | 73, 71, 75, 79, 77, 73, 82, 80, 81, 71, 77, 78, 76
 | 73, 70, 74, 79, 78, 73, 81, 81, 82, 70, 76, 79, 76
 | 73, 70, 74, 79, 78, 73, 82, 81, 82, 70, 76, 79, 75
 | 73, 71, 75, 79, 77, 73, 83, 80, 81, 71, 77, 79, 76
 | 77, 76, 81, 72, 72, 77, 77, 75, 75, 76, 82, 72, 81
 | 77, 76, 81, 72, 72, 77, 77, 75, 75, 76, 82, 72, 81
 | 77, 76, 81, 71, 72, 77, 77, 75, 75, 76, 83, 72, 81
 | 77, 76, 80, 71, 73, 77, 77, 75, 75, 76, 82, 72, 81
 | 78, 76, 80, 71, 73, 78, 77, 75, 75, 76, 82, 72, 81
 | 78, 76, 79, 71, 73, 78, 78, 75, 75, 76, 81, 72, 82
 | 77, 76, 81, 72, 73, 77, 78, 75, 75, 76, 82, 72, 81
 | 77, 76, 81, 72, 73, 77, 78, 75, 75, 76, 83, 72, 81
 | 77, 76, 81, 72, 73, 77, 78, 75, 75, 75, 83, 72, 81
 | 77, 76, 80, 72, 73, 77, 78, 75, 75, 76, 83, 72, 81
 | 77, 76, 80, 72, 73, 77, 78, 75, 75, 75, 82, 72, 81
 | 77, 76, 80, 72, 73, 77, 78, 75, 75, 75, 82, 72, 81
 | 77, 76, 80, 72, 73, 77, 78, 75, 75, 75, 82, 72, 81
 | 78, 76, 80, 71, 73, 78, 77, 75, 75, 76, 82, 72, 82
 | 78, 76, 80, 71, 73, 78, 77, 75, 75, 76, 82, 72, 82
 | 78, 76, 81, 71, 72, 78, 77, 74, 75, 76, 82, 72, 82
 | 77, 76, 81, 71, 72, 77, 77, 74, 75, 76, 82, 72, 82
 | 77, 76, 81, 71, 72, 77, 77, 74, 75, 76, 82, 72, 82
 | 77, 76, 81, 72, 73, 77, 78, 75, 75, 75, 82, 72, 81
 | 77, 76, 80, 72, 73, 77, 78, 75, 75, 75, 83, 72, 81
 | 78, 76, 81, 71, 72, 77, 77, 74, 75, 76, 82, 72, 82
 | 77, 76, 80, 72, 73, 77, 78, 75, 75, 75, 83, 72, 81
 | 78, 76, 81, 71, 72, 77, 77, 75, 75, 76, 82, 72, 81
 | 78, 76, 79, 71, 73, 78, 78, 75, 75, 75, 81, 72, 81
 | 78, 76, 80, 71, 73, 78, 77, 75, 75, 76, 82, 72, 82
 | 78, 76, 80, 71, 73, 78, 78, 75, 75, 76, 82, 72, 81
 | 77, 76, 81, 72, 73, 77, 77, 75, 75, 76, 82, 72, 81
 | 77, 76, 82, 72, 72, 77, 77, 74, 75, 76, 82, 72, 81
 | 77, 76, 81, 72, 72, 77, 77, 75, 75, 76, 82, 72, 81
 | 77, 76, 81, 72, 72, 77, 77, 74, 75, 76, 82, 72, 81
 | 77, 77, 82, 72, 72, 77, 77, 75, 75, 76, 81, 72, 81
 | 77, 76, 81, 72, 73, 77, 78, 75, 75, 75, 82, 72, 81
 | 77, 78, 82, 72, 72, 77, 77, 74, 75, 77, 80, 72, 80
 | 77, 78, 82, 72, 72, 77, 77, 74, 75, 77, 80, 72, 81
 | 77, 78, 82, 72, 72, 77, 76, 74, 74, 77, 80, 72, 81
 | 78, 78, 82, 72, 72, 77, 76, 74, 74, 77, 81, 72, 81
 | 78, 78, 83, 71, 72, 77, 76, 74, 74, 77, 81, 71, 81
 | 78, 78, 82, 71, 72, 77, 76, 74, 74, 77, 81, 71, 82
 | 78, 78, 82, 71, 72, 78, 76, 74, 74, 77, 81, 71, 82
 | 78, 78, 82, 70, 72, 78, 76, 74, 74, 77, 81, 71, 83
 | 79, 78, 81, 70, 72, 78, 76, 74, 74, 77, 81, 71, 83
 | 79, 77, 81, 70, 72, 78, 76, 74, 74, 77, 81, 71, 82
 | 79, 77, 80, 70, 72, 79, 76, 74, 74, 77, 81, 71, 83
 | 79, 77, 79, 70, 73, 79, 76, 74, 74, 77, 80, 71, 82
 | 80, 77, 78, 71, 73, 80, 76, 74, 74, 77, 80, 72, 81
 | 79, 77, 79, 70, 72, 79, 76, 74, 74, 77, 81, 71, 82
 | 79, 77, 80, 70, 72, 79, 76, 74, 74, 77, 81, 71, 83
 | 78, 77, 81, 70, 72, 78, 76, 74, 74, 77, 81, 71, 83
 | 78, 77, 82, 71, 72, 78, 76, 74, 74, 77, 81, 71, 82
 | 78, 77, 82, 71, 72, 77, 76, 74, 74, 77, 81, 71, 82
 | 78, 77, 83, 71, 72, 77, 77, 74, 74, 77, 81, 72, 81
 | 77, 78, 82, 72, 72, 77, 77, 74, 74, 77, 81, 72, 81
 | 77, 78, 82, 72, 72, 77, 77, 74, 75, 77, 80, 72, 81
 | 77, 78, 82, 72, 72, 77, 77, 74, 75, 77, 80, 72, 80
 | 78, 78, 82, 72, 72, 77, 76, 74, 74, 77, 80, 72, 81
 | 78, 78, 82, 72, 72, 77, 76, 74, 74, 77, 80, 72, 81
 | 78, 78, 82, 71, 72, 77, 76, 74, 74, 77, 80, 72, 81
 | 78, 78, 82, 71, 72, 77, 76, 74, 74, 77, 81, 71, 81
 | 78, 78, 82, 71, 72, 78, 76, 74, 74, 77, 81, 71, 81
 | 78, 78, 82, 71, 72, 78, 76, 74, 74, 77, 81, 71, 82
 | 78, 78, 82, 71, 72, 78, 76, 74, 74, 78, 81, 71, 82
 | 78, 78, 82, 71, 72, 78, 76, 74, 74, 77, 81, 71, 82
 | 79, 78, 81, 70, 72, 78, 76, 73, 74, 78, 81, 71, 82
 | 79, 78, 81, 70, 72, 79, 76, 73, 74, 78, 81, 71, 82
 | 79, 78, 81, 70, 72, 79, 76, 74, 74, 77, 81, 71, 82
 | 79, 78, 80, 70, 72, 79, 76, 74, 74, 77, 81, 71, 82
 | 80, 78, 80, 70, 72, 79, 76, 74, 74, 78, 80, 71, 82
 | 79, 77, 80, 70, 72, 79, 76, 74, 74, 77, 81, 71, 82
 | 80, 78, 79, 70, 72, 80, 76, 74, 74, 78, 80, 71, 82
 | 80, 77, 79, 70, 73, 80, 76, 74, 74, 77, 80, 71, 82
 | 80, 77, 78, 70, 73, 80, 76, 74, 74, 77, 80, 72, 82
 | 80, 77, 79, 70, 73, 80, 76, 74, 74, 77, 80, 71, 82
 | 79, 77, 80, 70, 72, 79, 76, 74, 74, 77, 81, 71, 82
 | 79, 78, 80, 70, 72, 79, 76, 74, 74, 78, 81, 71, 82
 | 78, 77, 82, 71, 72, 78, 76, 74, 74, 77, 81, 71, 82
 | 79, 78, 81, 70, 72, 78, 76, 74, 74, 77, 81, 71, 82
 | 79, 78, 81, 70, 72, 79, 76, 73, 74, 78, 81, 71, 82
 | 78, 78, 83, 71, 72, 77, 77, 74, 74, 77, 81, 72, 81
 | 78, 78, 83, 71, 72, 77, 76, 74, 74, 77, 81, 71, 81
 | 78, 78, 83, 71, 72, 77, 76, 74, 74, 77, 81, 71, 82
 | 78, 78, 82, 71, 72, 78, 76, 74, 74, 77, 81, 71, 82
 | 78, 79, 82, 71, 72, 78, 76, 73, 74, 78, 80, 71, 81
 | 79, 79, 82, 71, 72, 78, 76, 73, 73, 78, 80, 71, 82
 | 79, 79, 82, 70, 71, 78, 75, 73, 73, 79, 80, 71, 82
 | 79, 79, 82, 70, 71, 79, 75, 73, 73, 79, 80, 71, 82
 | 79, 79, 82, 70, 71, 79, 75, 73, 73, 79, 80, 70, 83
 | 80, 79, 81, 70, 71, 79, 75, 73, 73, 79, 80, 70, 83
 | 80, 79, 81, 70, 71, 79, 75, 73, 73, 79, 80, 70, 83
 | 79, 79, 82, 70, 71, 79, 75, 73, 73, 79, 80, 70, 83
 | 79, 79, 82, 71, 72, 78, 76, 73, 74, 78, 80, 71, 81
 | 79, 79, 83, 70, 71, 78, 75, 73, 73, 79, 80, 71, 82
 | 79, 79, 82, 70, 71, 78, 75, 73, 73, 79, 80, 71, 82
 | 79, 80, 82, 70, 71, 79, 75, 73, 73, 79, 80, 70, 82
 | 79, 80, 82, 70, 71, 79, 75, 73, 73, 79, 80, 70, 83
 | 80, 80, 81, 70, 71, 79, 75, 73, 73, 79, 80, 70, 82
 | 80, 80, 81, 69, 71, 80, 75, 73, 73, 79, 80, 70, 82
 | 80, 80, 81, 70, 71, 79, 75, 73, 73, 79, 80, 70, 82
 | 79, 79, 83, 70, 71, 78, 75, 73, 73, 79, 80, 71, 82
 | 79, 79, 83, 71, 72, 78, 76, 73, 73, 78, 80, 71, 82
 | 79, 79, 83, 70, 71, 78, 75, 73, 73, 79, 80, 71, 82
 | 79, 79, 82, 70, 71, 78, 75, 73, 73, 78, 80, 71, 82
 | 79, 80, 83, 70, 71, 78, 75, 73, 73, 79, 80, 71, 82
 | 80, 79, 81, 69, 71, 80, 75, 73, 73, 79, 80, 70, 83
 | 80, 79, 81, 70, 71, 79, 75, 73, 73, 79, 80, 70, 83
 | 80, 79, 81, 69, 71, 80, 75, 73, 73, 79, 80, 70, 83
 | 80, 79, 80, 70, 72, 80, 75, 73, 73, 79, 80, 70, 82
 | 81, 80, 80, 69, 71, 80, 75, 73, 73, 79, 79, 70, 82
 | 81, 79, 80, 69, 72, 80, 75, 73, 73, 79, 80, 70, 82
 | 80, 79, 80, 70, 72, 80, 75, 73, 73, 79, 80, 70, 82
 | 81, 79, 80, 70, 72, 80, 75, 73, 73, 79, 80, 70, 82
 | 79, 79, 82, 70, 71, 79, 75, 73, 73, 79, 80, 70, 83
 | 79, 80, 82, 70, 71, 79, 75, 73, 73, 79, 80, 70, 82
 | 79, 80, 82, 70, 71, 79, 75, 73, 73, 79, 80, 70, 83
 | 79, 79, 82, 70, 71, 78, 75, 73, 73, 79, 80, 71, 82
 | 81, 82, 81, 70, 71, 79, 74, 72, 73, 81, 78, 70, 81
 | 81, 82, 81, 70, 71, 79, 74, 73, 73, 81, 78, 70, 81
 | 81, 82, 80, 70, 71, 79, 74, 73, 73, 81, 78, 71, 80
 | 81, 82, 80, 70, 72, 79, 74, 73, 73, 81, 78, 71, 80
 | 81, 82, 80, 70, 72, 79, 74, 73, 73, 81, 78, 71, 80
 | 80, 83, 80, 71, 72, 79, 74, 73, 73, 81, 77, 71, 79
 | 80, 82, 79, 71, 72, 79, 74, 73, 73, 81, 77, 72, 79
 | 81, 82, 81, 70, 71, 79, 74, 72, 73, 81, 78, 70, 81
 | 81, 82, 80, 70, 71, 79, 74, 73, 73, 81, 78, 71, 80
 | 81, 82, 80, 70, 72, 79, 74, 73, 73, 81, 78, 71, 80
 | 81, 82, 80, 70, 72, 79, 74, 73, 73, 81, 78, 71, 80
 | 81, 82, 80, 70, 72, 79, 74, 73, 73, 81, 78, 71, 80
 | 80, 82, 80, 70, 72, 79, 74, 73, 73, 81, 78, 71, 80
 | 81, 82, 80, 70, 72, 79, 74, 73, 73, 81, 78, 71, 80
 | 80, 82, 80, 71, 72, 79, 74, 73, 73, 81, 78, 71, 80
 | 81, 82, 80, 70, 72, 79, 74, 73, 73, 81, 78, 71, 80
 | 80, 83, 80, 71, 72, 79, 74, 73, 73, 81, 78, 71, 79
 | 81, 83, 79, 71, 72, 79, 74, 73, 73, 81, 77, 71, 79
 | 80, 82, 79, 71, 72, 79, 74, 73, 73, 81, 77, 71, 79
 | 80, 83, 79, 71, 72, 79, 74, 73, 73, 81, 77, 71, 79
 | 80, 82, 79, 71, 72, 79, 74, 73, 73, 81, 77, 71, 79
 | 81, 82, 80, 70, 72, 79, 74, 73, 73, 81, 78, 71, 80
 | 81, 82, 80, 70, 72, 79, 74, 73, 73, 81, 78, 71, 80
 | 81, 82, 80, 70, 71, 79, 74, 72, 73, 81, 78, 70, 80
 | 81, 82, 80, 70, 71, 79, 74, 72, 73, 81, 78, 70, 80
 | 80, 82, 79, 71, 72, 79, 74, 73, 73, 81, 77, 72, 79
 | 80, 82, 79, 71, 72, 79, 74, 73, 73, 81, 77, 72, 79
 | 80, 82, 79, 71, 72, 79, 74, 73, 73, 81, 77, 72, 79
 | 80, 82, 79, 71, 72, 79, 74, 73, 73, 81, 77, 71, 79
 | 80, 83, 79, 71, 72, 79, 74, 73, 73, 81, 77, 71, 79
 | 80, 82, 79, 71, 72, 79, 74, 73, 73, 81, 77, 71, 79
 | 81, 82, 80, 71, 72, 79, 74, 73, 73, 81, 78, 71, 80
 | 81, 82, 80, 70, 72, 79, 74, 73, 73, 81, 78, 71, 80
 | 81, 82, 80, 70, 72, 79, 74, 73, 73, 81, 78, 71, 80
 | 81, 82, 80, 70, 72, 79, 74, 73, 73, 81, 78, 71, 80
 | 81, 82, 80, 70, 72, 79, 74, 73, 73, 81, 78, 71, 80
 | 80, 83, 80, 71, 72, 79, 74, 73, 73, 81, 77, 71, 79
 | 80, 83, 79, 71, 72, 79, 74, 73, 73, 81, 77, 71, 79
 | 80, 82, 79, 71, 72, 79, 74, 73, 73, 81, 77, 71, 79
 | 81, 82, 80, 71, 72, 79, 74, 73, 73, 81, 77, 71, 79
 | 80, 82, 80, 71, 72, 79, 75, 73, 73, 80, 78, 71, 80
 | 80, 82, 80, 71, 72, 79, 75, 73, 73, 80, 78, 71, 80
 | 80, 82, 80, 71, 72, 79, 75, 73, 73, 80, 78, 71, 80
 | 80, 82, 80, 71, 72, 79, 75, 73, 73, 80, 78, 71, 80
 | 80, 82, 80, 71, 72, 79, 75, 73, 73, 81, 78, 71, 80
 | 80, 83, 80, 71, 72, 79, 75, 73, 73, 81, 78, 71, 80
 | 80, 82, 80, 71, 72, 79, 75, 73, 73, 80, 78, 71, 79
 | 80, 83, 80, 71, 72, 79, 74, 73, 73, 81, 78, 71, 79
 | 80, 82, 80, 71, 72, 79, 75, 73, 73, 80, 78, 72, 79
 | 80, 82, 80, 71, 72, 79, 75, 73, 73, 80, 78, 72, 79
 | 80, 83, 80, 71, 72, 78, 75, 73, 73, 80, 78, 71, 79
 | 80, 82, 80, 71, 72, 79, 75, 73, 73, 80, 78, 71, 80
 | 80, 83, 80, 71, 72, 79, 75, 73, 73, 80, 78, 71, 80
 | 80, 83, 80, 71, 72, 78, 75, 73, 73, 80, 78, 71, 80
 | 80, 83, 80, 71, 72, 78, 75, 73, 73, 80, 78, 71, 79
 | 80, 82, 80, 71, 72, 78, 75, 73, 73, 80, 78, 72, 79
 | 80, 82, 80, 71, 72, 79, 75, 73, 73, 80, 78, 72, 79
 | 80, 82, 79, 71, 72, 79, 75, 73, 73, 80, 77, 72, 79
 | 80, 83, 80, 71, 72, 79, 75, 73, 73, 80, 78, 71, 80
 | 80, 82, 80, 71, 72, 78, 75, 73, 73, 80, 78, 71, 80
 | 80, 82, 80, 71, 72, 79, 75, 73, 73, 81, 78, 71, 80
 | 80, 82, 80, 71, 72, 79, 75, 73, 73, 80, 78, 71, 80
 | 80, 82, 80, 71, 72, 79, 75, 73, 73, 81, 78, 71, 80
 | 80, 83, 80, 71, 72, 78, 75, 73, 73, 80, 78, 71, 79
 | 80, 83, 80, 71, 72, 79, 75, 73, 73, 80, 78, 71, 79
 | 80, 83, 80, 71, 72, 79, 75, 73, 73, 80, 78, 71, 79
 | 80, 83, 80, 71, 72, 79, 75, 73, 73, 80, 78, 71, 79
 | 80, 83, 80, 71, 72, 78, 75, 73, 73, 80, 78, 71, 79
 | 81, 83, 80, 70, 71, 80, 74, 72, 72, 82, 78, 70, 80
 | 81, 82, 80, 70, 72, 80, 74, 73, 73, 82, 78, 71, 80
 | 81, 82, 79, 70, 72, 80, 74, 73, 73, 82, 77, 71, 79
 | 81, 82, 79, 71, 72, 80, 74, 73, 73, 81, 77, 71, 79
 | 81, 82, 79, 70, 72, 80, 74, 73, 73, 81, 77, 71, 79
 | 81, 82, 79, 70, 72, 80, 74, 73, 73, 82, 77, 71, 79
 | 81, 82, 80, 70, 72, 80, 74, 73, 73, 82, 78, 71, 80
 | 81, 82, 80, 70, 72, 80, 74, 72, 73, 82, 78, 71, 80
 | 81, 82, 79, 70, 72, 80, 74, 73, 73, 82, 77, 71, 79
 | 81, 82, 79, 70, 72, 80, 74, 73, 73, 82, 77, 71, 79
 | 81, 82, 79, 71, 72, 80, 74, 73, 73, 81, 77, 71, 79
 | 81, 82, 79, 70, 72, 80, 74, 73, 73, 82, 77, 71, 79
 | 81, 82, 79, 70, 72, 80, 74, 73, 73, 82, 77, 71, 80
 | 81, 82, 79, 70, 72, 80, 74, 73, 73, 82, 77, 71, 80
 | 81, 82, 80, 70, 72, 80, 74, 72, 73, 82, 78, 71, 80
 | 81, 83, 80, 70, 72, 79, 74, 72, 73, 82, 78, 71, 80
 | 81, 82, 80, 70, 72, 80, 74, 73, 73, 82, 78, 71, 80
 | 81, 82, 79, 71, 72, 80, 74, 73, 73, 81, 77, 71, 79
 | 81, 82, 79, 71, 72, 80, 74, 73, 73, 81, 77, 71, 79
 | 81, 82, 79, 70, 72, 80, 74, 73, 73, 82, 77, 71, 79
 | 81, 82, 79, 70, 72, 80, 74, 73, 73, 82, 77, 71, 80
 | 81, 83, 80, 70, 72, 80, 74, 72, 72, 82, 78, 70, 80
 | 81, 82, 79, 71, 72, 80, 74, 73, 73, 81, 77, 71, 79
 | 81, 82, 79, 70, 72, 80, 74, 73, 73, 82, 77, 71, 80
 | 82, 81, 79, 69, 72, 81, 74, 72, 72, 81, 78, 70, 80
 | 82, 81, 79, 69, 72, 81, 74, 72, 72, 81, 78, 70, 80
 | 82, 81, 79, 69, 72, 81, 74, 72, 72, 82, 78, 70, 80
 | 82, 81, 79, 69, 72, 81, 74, 72, 72, 81, 78, 70, 80
 | 83, 80, 79, 69, 72, 82, 74, 73, 73, 81, 78, 70, 80
 | 82, 80, 79, 69, 72, 82, 74, 73, 73, 81, 78, 71, 80
 | 82, 79, 78, 70, 72, 82, 75, 73, 73, 80, 78, 71, 80
 | 82, 79, 78, 70, 73, 83, 75, 73, 73, 80, 78, 71, 80
 | 82, 79, 78, 70, 72, 83, 75, 73, 73, 80, 78, 71, 80
 | 83, 80, 79, 69, 72, 82, 74, 73, 73, 80, 78, 71, 80
 | 82, 80, 79, 69, 72, 82, 74, 73, 73, 81, 78, 70, 80
 | 83, 81, 79, 69, 72, 81, 74, 73, 73, 81, 78, 70, 80
 | 82, 81, 79, 69, 72, 81, 74, 72, 72, 81, 78, 70, 80
 | 83, 80, 79, 69, 72, 82, 74, 73, 73, 81, 78, 70, 80
 | 82, 79, 78, 70, 72, 83, 75, 73, 73, 80, 78, 71, 80
 | 82, 79, 78, 70, 73, 83, 75, 73, 73, 80, 78, 71, 80
 | 82, 79, 78, 70, 72, 82, 75, 73, 73, 80, 78, 71, 80
 | 83, 80, 78, 70, 72, 82, 74, 73, 73, 80, 78, 71, 80
 | 83, 80, 79, 69, 72, 82, 74, 73, 73, 81, 78, 70, 80
 | 83, 80, 79, 69, 72, 82, 74, 73, 73, 81, 78, 70, 80
 | 82, 79, 78, 70, 73, 83, 75, 73, 73, 79, 78, 71, 80
 | 82, 78, 78, 70, 73, 82, 75, 74, 74, 79, 78, 71, 80
 | 82, 79, 78, 70, 73, 83, 75, 73, 73, 80, 78, 71, 80
 | 82, 79, 78, 70, 72, 82, 75, 73, 73, 80, 78, 71, 80
 | 83, 80, 79, 69, 72, 82, 75, 73, 73, 80, 78, 71, 80
 | 82, 81, 79, 69, 72, 81, 74, 73, 73, 81, 78, 70, 80
 | 82, 79, 78, 70, 73, 82, 75, 73, 73, 79, 78, 71, 80
 | 83, 79, 78, 70, 72, 82, 75, 73, 73, 80, 78, 71, 80
 | 82, 80, 79, 69, 72, 82, 75, 73, 73, 80, 78, 70, 80
 | 83, 80, 79, 69, 72, 82, 74, 73, 73, 80, 78, 71, 80
 | 82, 79, 78, 70, 72, 82, 75, 73, 73, 80, 78, 71, 80
 | 82, 79, 78, 69, 72, 82, 75, 73, 73, 80, 78, 71, 80
 | 82, 82, 79, 70, 72, 80, 74, 72, 72, 83, 77, 70, 80
 | 83, 81, 79, 69, 72, 81, 74, 72, 72, 82, 77, 70, 80
 | 82, 81, 79, 70, 72, 81, 74, 73, 73, 82, 77, 71, 80
 | 82, 80, 78, 70, 72, 82, 74, 73, 73, 81, 77, 71, 80
 | 82, 80, 78, 70, 73, 82, 74, 73, 73, 80, 77, 71, 79
 | 82, 79, 78, 70, 73, 83, 75, 73, 73, 80, 77, 71, 79
 | 81, 78, 77, 71, 74, 82, 75, 74, 74, 79, 77, 72, 79
 | 80, 78, 77, 71, 74, 82, 75, 74, 74, 78, 77, 73, 79
 | 81, 78, 77, 71, 74, 82, 75, 74, 74, 79, 77, 72, 79
 | 81, 78, 77, 71, 74, 82, 75, 74, 74, 79, 77, 72, 79
 | 82, 79, 78, 70, 73, 82, 75, 74, 73, 80, 77, 72, 79
 | 82, 79, 78, 70, 73, 83, 75, 73, 73, 80, 77, 71, 79
 | 82, 80, 78, 70, 73, 82, 74, 73, 73, 81, 77, 71, 79
 | 83, 80, 78, 70, 72, 82, 74, 73, 73, 81, 77, 71, 80
 | 82, 81, 79, 70, 72, 82, 74, 73, 73, 81, 77, 71, 80
 | 83, 81, 79, 70, 72, 81, 74, 72, 72, 82, 77, 71, 80
 | 82, 82, 79, 69, 72, 81, 74, 72, 72, 82, 77, 70, 80
 | 82, 82, 79, 70, 72, 80, 74, 72, 72, 83, 77, 70, 80
 | 83, 81, 79, 70, 72, 81, 74, 72, 72, 82, 77, 70, 80
 | 82, 81, 79, 70, 72, 81, 74, 73, 73, 82, 77, 71, 80
 | 82, 81, 79, 70, 72, 81, 74, 73, 73, 82, 77, 71, 80
 | 82, 80, 78, 70, 72, 82, 74, 73, 73, 81, 77, 71, 79
 | 83, 80, 78, 70, 72, 82, 74, 73, 73, 81, 77, 71, 79
 | 83, 80, 78, 70, 72, 82, 74, 73, 73, 81, 77, 71, 80
 | 83, 80, 78, 70, 72, 82, 74, 73, 73, 81, 77, 71, 79
 | 82, 80, 78, 70, 73, 82, 74, 73, 73, 81, 77, 71, 79
 | 82, 80, 78, 70, 72, 82, 74, 73, 73, 81, 77, 71, 80
 | 83, 80, 78, 70, 72, 82, 74, 73, 73, 81, 77, 71, 79
 | 83, 80, 78, 70, 73, 82, 74, 73, 73, 81, 77, 71, 79
 | 82, 80, 78, 70, 73, 82, 74, 73, 73, 81, 77, 71, 79
 | 82, 80, 78, 70, 73, 82, 74, 73, 73, 80, 77, 71, 79
 | 82, 79, 78, 70, 73, 83, 75, 73, 73, 80, 77, 71, 79
 | 82, 79, 78, 70, 73, 82, 75, 73, 73, 80, 77, 71, 79
 | 82, 80, 78, 70, 73, 82, 74, 73, 73, 80, 77, 71, 79
 | 82, 79, 77, 70, 73, 82, 75, 74, 73, 80, 77, 72, 79
 | 81, 79, 77, 71, 74, 83, 75, 74, 74, 79, 77, 72, 79
 | 81, 78, 77, 71, 74, 83, 75, 74, 74, 79, 77, 72, 79
 | 81, 78, 77, 71, 74, 82, 75, 74, 74, 79, 77, 72, 79
 | 80, 78, 77, 71, 74, 82, 75, 74, 74, 79, 77, 73, 79
 | 81, 78, 77, 71, 74, 82, 75, 74, 74, 79, 77, 72, 79
 | 81, 78, 77, 71, 74, 82, 75, 74, 74, 79, 77, 72, 79
 | 80, 78, 77, 71, 75, 82, 75, 74, 74, 78, 77, 73, 79
 | 80, 77, 77, 72, 75, 82, 76, 75, 74, 78, 77, 73, 78
 | 80, 77, 77, 72, 75, 82, 75, 75, 74, 78, 77, 73, 78
 | 81, 78, 77, 71, 74, 82, 75, 74, 74, 79, 77, 72, 79
 | 81, 78, 77, 71, 74, 83, 75, 74, 74, 79, 77, 72, 79
 | 82, 79, 78, 70, 73, 82, 75, 73, 73, 80, 77, 71, 79
 | 82, 79, 78, 70, 73, 82, 75, 73, 73, 80, 77, 71, 79
 | 83, 80, 78, 70, 72, 82, 74, 73, 73, 81, 77, 71, 80
 | 82, 82, 79, 70, 72, 81, 74, 72, 72, 83, 77, 70, 80
 | 83, 81, 79, 70, 72, 81, 74, 72, 72, 82, 77, 70, 80
 | 82, 81, 79, 70, 72, 81, 74, 73, 73, 82, 77, 71, 80
 | 82, 81, 79, 70, 72, 81, 74, 72, 72, 82, 77, 71, 80
 | 82, 82, 79, 70, 72, 81, 74, 72, 72, 82, 77, 71, 79
 | 82, 81, 78, 70, 72, 82, 74, 73, 73, 81, 77, 71, 79
 | 82, 79, 78, 70, 73, 83, 74, 73, 73, 80, 77, 71, 79
 | 82, 79, 78, 70, 73, 83, 75, 73, 73, 80, 77, 71, 79
 | 82, 79, 78, 70, 73, 82, 75, 74, 73, 80, 77, 72, 79
 | 81, 79, 78, 70, 73, 82, 75, 74, 74, 79, 77, 72, 79
 | 81, 78, 77, 71, 74, 82, 75, 74, 74, 79, 77, 72, 79
 | 81, 78, 77, 71, 74, 82, 75, 74, 74, 79, 77, 72, 79
 | 80, 78, 77, 71, 75, 82, 75, 75, 74, 78, 77, 73, 79
 | 80, 78, 77, 71, 75, 82, 75, 75, 74, 78, 77, 73, 78
 | 82, 82, 79, 70, 72, 81, 74, 72, 72, 83, 77, 71, 79
 | 82, 81, 79, 70, 72, 81, 74, 72, 72, 82, 77, 71, 80
 | 82, 82, 79, 70, 72, 81, 74, 72, 73, 82, 77, 71, 79
 | 82, 81, 79, 70, 72, 81, 74, 72, 73, 82, 77, 71, 79
 | 82, 81, 79, 70, 72, 81, 74, 73, 73, 82, 77, 71, 79
 | 82, 81, 79, 70, 72, 81, 74, 73, 73, 82, 77, 71, 79
 | 82, 81, 79, 70, 72, 81, 74, 73, 73, 82, 77, 71, 79
 | 82, 81, 78, 70, 72, 81, 74, 73, 73, 82, 77, 71, 79
 | 82, 81, 78, 70, 72, 82, 74, 73, 73, 82, 77, 71, 79
 | 82, 80, 78, 70, 72, 82, 74, 73, 73, 81, 77, 71, 79
 | 83, 80, 78, 70, 73, 82, 74, 73, 73, 81, 77, 71, 79
 | 82, 79, 78, 70, 73, 83, 74, 73, 73, 80, 77, 71, 79
 | 82, 79, 77, 70, 73, 82, 75, 73, 73, 80, 77, 72, 79
 | 81, 79, 77, 71, 74, 82, 75, 74, 74, 79, 77, 72, 79
 | 82, 79, 77, 71, 74, 82, 75, 74, 73, 80, 77, 72, 79
 | 82, 79, 78, 70, 73, 83, 74, 73, 73, 80, 77, 71, 79
 | 83, 80, 78, 70, 73, 83, 74, 73, 73, 81, 77, 71, 79
 | 83, 80, 78, 70, 73, 82, 74, 73, 73, 81, 77, 71, 79
 | 82, 81, 78, 70, 72, 82, 74, 73, 73, 82, 77, 71, 79
 | 82, 80, 78, 70, 73, 82, 74, 73, 73, 81, 77, 71, 79
 | 83, 80, 78, 70, 73, 82, 74, 73, 73, 81, 77, 71, 79
 | 82, 80, 78, 70, 73, 82, 74, 73, 73, 81, 77, 71, 79
 | 82, 80, 78, 70, 73, 82, 74, 73, 73, 81, 77, 71, 79
 | 82, 80, 78, 70, 73, 82, 74, 73, 73, 81, 77, 71, 79
 | 82, 80, 78, 70, 73, 83, 74, 73, 73, 81, 77, 71, 79
 | 83, 80, 78, 70, 73, 82, 74, 73, 73, 81, 77, 71, 79
 | 82, 79, 78, 70, 73, 83, 74, 73, 73, 80, 77, 71, 79
 | 82, 79, 77, 71, 73, 82, 75, 73, 73, 80, 77, 72, 79
 | 82, 79, 77, 71, 74, 82, 75, 74, 74, 80, 77, 72, 79
 | 81, 79, 77, 71, 74, 82, 75, 74, 74, 80, 77, 72, 79
 | 82, 79, 77, 71, 73, 82, 74, 73, 73, 80, 77, 72, 79
 | 82, 79, 78, 70, 73, 83, 74, 73, 73, 80, 77, 72, 79
 | 82, 80, 78, 70, 73, 83, 74, 73, 73, 81, 77, 71, 79
 | 83, 80, 78, 70, 73, 82, 74, 73, 73, 81, 77, 71, 79
 | 83, 80, 78, 70, 73, 82, 74, 73, 73, 81, 77, 71, 79
 | 82, 79, 77, 71, 74, 82, 75, 74, 74, 80, 77, 72, 79
 | 81, 78, 77, 71, 74, 82, 75, 74, 74, 79, 77, 72, 78
 | 81, 79, 77, 71, 74, 82, 75, 74, 74, 79, 77, 72, 78
 | 81, 79, 77, 71, 74, 82, 75, 74, 74, 80, 77, 72, 78
 | 82, 79, 77, 71, 74, 82, 75, 74, 74, 80, 77, 72, 78
 | 82, 79, 77, 71, 73, 82, 75, 74, 73, 80, 77, 72, 79
 | 82, 79, 77, 71, 73, 83, 74, 73, 73, 80, 77, 72, 79
 | 82, 80, 78, 70, 73, 83, 74, 73, 73, 80, 77, 71, 79
 | 83, 80, 78, 70, 73, 83, 74, 73, 73, 81, 77, 71, 79
 | 82, 81, 78, 70, 73, 82, 74, 73, 73, 81, 77, 71, 79
 | 82, 80, 78, 70, 73, 82, 74, 73, 73, 81, 77, 71, 79
 | 82, 80, 78, 70, 73, 82, 74, 73, 73, 81, 77, 71, 79
 | 82, 80, 78, 70, 73, 82, 74, 73, 73, 81, 77, 71, 79
 | 82, 80, 78, 70, 73, 83, 74, 73, 73, 81, 77, 72, 79
 | 82, 80, 78, 70, 73, 83, 74, 73, 73, 80, 77, 72, 79
 | 82, 79, 77, 71, 73, 83, 74, 73, 73, 80, 77, 72, 79
 | 82, 79, 77, 71, 73, 82, 74, 73, 73, 80, 77, 72, 79
 | 82, 80, 77, 71, 73, 83, 74, 73, 73, 80, 77, 72, 79
 | 82, 80, 78, 70, 73, 82, 74, 73, 73, 81, 77, 71, 79
 | 82, 80, 78, 70, 73, 82, 74, 73, 73, 81, 77, 71, 79 |];
 P=[4, 4, 4, 4, 4, 4, 4, 5, 5, 5, 5, 5, 5, 5, 5, 5, 5, 5, 4, 4, 4, 4, 4, 4, 4, 4, 4, 5, 5, 5, 5, 5, 5, 5, 5, 5, 5, 5, 5, 5, 5, 5, 5, 4, 4, 4, 4, 4, 4, 4, 4, 4, 4, 4, 5, 5, 5, 5, 5, 5, 5, 5, 5, 5, 5, 5, 5, 5, 5, 5, 5, 5, 5, 5, 5, 5, 5, 5, 5, 5, 5, 5, 4, 4, 5, 5, 5, 4, 4, 4, 4, 4, 4, 4, 4, 4, 4, 4, 5, 5, 5, 5, 5, 5, 5, 5, 5, 5, 12, 12, 12, 12, 12, 12, 12, 12, 12, 12, 12, 12, 12, 12, 12, 12, 12, 12, 12, 12, 12, 12, 12, 12, 8, 8, 8, 8, 8, 9, 9, 8, 8, 8, 8, 8, 8, 8, 8, 8, 8, 9, 9, 8, 8, 8, 8, 8, 8, 8, 8, 7, 7, 7, 7, 7, 7, 7, 7, 7, 7, 7, 7, 7, 7, 7, 7, 7, 7, 7, 7, 7, 7, 7, 7, 7, 7, 7, 7, 7, 7, 7, 7, 7, 7, 7, 7, 7, 7, 7, 7, 7, 7, 7, 7, 7, 7, 7, 7, 7, 7, 7, 7, 7, 7, 7, 7, 7, 7, 7, 7, 7, 7, 7, 7, 7, 7, 7, 7, 7, 7, 7, 7, 7, 11, 11, 11, 11, 11, 11, 11, 11, 11, 11, 11, 11, 11, 11, 11, 11, 11, 11, 11, 11, 11, 11, 11, 11, 11, 11, 11, 11, 11, 11, 11, 11, 3, 3, 3, 3, 3, 3, 3, 3, 13, 13, 13, 13, 13, 13, 13, 13, 11, 3, 3, 3, 3, 3, 3, 3, 3, 3, 3, 3, 3, 3, 13, 13, 13, 13, 13, 13, 13, 13, 13, 13, 13, 13, 3, 13, 13, 3, 3, 3, 3, 3, 3, 3, 3, 13, 13, 13, 13, 3, 3, 3, 3, 13, 13, 13, 13, 3, 3, 3, 3, 3, 13, 13, 13, 13, 13, 13, 13, 13, 13, 3, 13, 3, 2, 2, 2, 2, 2, 2, 2, 2, 2, 2, 2, 2, 2, 2, 2, 2, 2, 2, 2, 2, 2, 2, 2, 2, 2, 2, 2, 2, 2, 2, 2, 2, 2, 2, 2, 2, 2, 2, 2, 2, 2, 2, 2, 2, 2, 2, 2, 2, 2, 2, 2, 2, 2, 2, 2, 2, 2, 2, 2, 2, 2, 2, 2, 2, 2, 2, 2, 2, 2, 2, 2, 2, 2, 2, 2, 2, 2, 2, 2, 2, 2, 2, 2, 2, 2, 2, 2, 2, 2, 2, 2, 2, 1, 1, 1, 1, 1, 1, 6, 6, 6, 1, 1, 1, 1, 1, 6, 6, 6, 1, 1, 1, 6, 6, 6, 6, 1, 1, 6, 6, 1, 1, 6, 6, 10, 1, 1, 1, 6, 6, 6, 6, 6, 6, 6, 6, 6, 1, 1, 1, 1, 10, 1, 1, 1, 1, 1, 1, 1, 6, 1, 1, 1, 6, 6, 6, 6, 6, 6, 6, 6, 6, 6, 6, 6, 6, 6, 6, 6, 6, 6, 6, 1, 1, 1, 1, 1, 1, 1, 6, 6, 6, 6, 6, 6, 6, 6, 10, 1, 10, 1, 1, 1, 1, 1, 1, 1, 1, 6, 6, 6, 6, 6, 6, 1, 1, 1, 1, 1, 1, 1, 6, 1, 6, 6, 6, 6, 6, 6, 1, 1, 1, 6, 6, 6, 6, 6, 6, 6, 6, 1, 1, 1, 1, 1, 1, 6, 6, 6, 6, 1, 1 ];